qbf_easy_train/easy_5868_SAT.qdimacs
p cnf 25 63
a 5 22 0
e 1 2 3 4 6 7 8 9 10 11 12 13 14 15 16 17 18 19 20 21 23 24 25 0
-2 -3 -4 0
2 3 -4 0
-2 3 4 0
2 -3 4 0
-1 4 -5 0
1 -4 -5 0
-1 -4 5 0
1 4 5 0
-6 -2 0
-6 3 0
2 -3 6 0
-7 -6 0
-7 2 0
6 -2 7 0
8 5 0
8 -7 0
-5 7 -8 0
-11 -9 0
-11 -10 0
9 10 11 0
12 4 0
12 11 0
-4 -11 -12 0
14 -13 0
14 -3 0
13 3 -14 0
-15 2 0
-15 9 0
-2 -9 15 0
-14 15 -16 0
14 -15 -16 0
-14 -15 16 0
14 15 16 0
18 -17 0
18 17 0
9 -19 -20 0
-9 19 -20 0
9 19 20 0
-9 -19 20 0
-21 20 0
-21 13 0
-20 -13 21 0
-22 18 0
-22 -21 0
-18 21 22 0
-23 16 0
-23 22 0
-16 -22 23 0
12 23 -24 0
-12 -23 -24 0
12 -23 24 0
-12 23 24 0
-8 24 -25 0
8 -24 -25 0
-8 -24 25 0
8 24 25 0
-11 13 12 -14 -20 0
-11 -23 21 -14 -4 0
7 24 13 16 -14 0
10 -15 -21 24 19 -8 14 5 0
3 7 1 5 0
3 13 -23 0
25 0
