sat_easy_train/easy_5868_SAT.dimacs
p cnf 127 431
-2 -1 0
-2 -1 0
1 2 0
-4 1 0
-4 -3 0
-1 3 4 0
5 -2 0
5 4 0
2 -4 -5 0
-8 -7 0
-8 4 0
7 -4 8 0
-6 8 -9 0
6 -8 -9 0
-6 -8 9 0
6 8 9 0
-10 -9 0
-10 -8 0
9 8 10 0
-11 -5 0
-11 -10 0
5 10 11 0
14 -12 0
14 13 0
12 -13 -14 0
15 -8 -16 0
-15 8 -16 0
15 8 16 0
-15 -8 16 0
-17 -14 0
-17 16 0
14 -16 17 0
2 17 -18 0
-2 -17 -18 0
2 -17 18 0
-2 17 18 0
-19 20 -21 0
19 -20 -21 0
-19 -20 21 0
19 20 21 0
-6 -20 -22 0
6 20 -22 0
-6 20 22 0
6 -20 22 0
-24 23 0
-24 -2 0
-23 2 24 0
-22 -6 -25 0
22 6 -25 0
-22 6 25 0
22 -6 25 0
-26 14 0
-26 25 0
-14 -25 26 0
-27 -24 0
-27 26 0
24 -26 27 0
28 23 0
28 27 0
-23 -27 -28 0
29 -10 0
29 -28 0
10 28 -29 0
30 22 0
30 29 0
-22 -29 -30 0
-26 31 -32 0
26 -31 -32 0
-26 -31 32 0
26 31 32 0
-25 8 -33 0
25 -8 -33 0
-25 -8 33 0
25 8 33 0
34 32 0
34 33 0
-32 -33 -34 0
-35 30 0
-35 34 0
-30 -34 35 0
36 -21 0
36 -35 0
21 35 -36 0
37 -18 0
37 36 0
18 -36 -37 0
38 -11 0
38 37 0
11 -37 -38 0
-39 -8 0
-39 -19 0
8 19 39 0
2 40 -41 0
-2 -40 -41 0
2 -40 41 0
-2 40 41 0
-42 31 0
-42 23 0
-31 -23 42 0
-41 -42 -43 0
41 42 -43 0
-41 42 43 0
41 -42 43 0
39 43 -44 0
-39 -43 -44 0
39 -43 44 0
-39 43 44 0
45 25 0
45 -24 0
-25 24 -45 0
46 4 -47 0
-46 -4 -47 0
46 -4 47 0
-46 4 47 0
48 -45 0
48 47 0
45 -47 -48 0
-49 10 0
-49 9 0
-10 -9 49 0
50 -25 0
50 -8 0
25 8 -50 0
-51 50 0
-51 6 0
-50 -6 51 0
51 22 -52 0
-51 -22 -52 0
51 -22 52 0
-51 22 52 0
53 -27 0
53 29 0
27 -29 -53 0
-54 52 0
-54 -53 0
-52 53 54 0
55 -49 0
55 54 0
49 -54 -55 0
56 48 0
56 55 0
-48 -55 -56 0
-57 44 0
-57 -56 0
-44 56 57 0
-32 -27 -58 0
32 27 -58 0
-32 27 58 0
32 -27 58 0
-43 32 -59 0
43 -32 -59 0
-43 -32 59 0
43 32 59 0
-60 -58 0
-60 59 0
58 -59 60 0
61 -2 0
61 -25 0
2 25 -61 0
-46 -40 -62 0
46 40 -62 0
-46 40 62 0
46 -40 62 0
-63 14 0
-63 4 0
-14 -4 63 0
-64 -62 0
-64 63 0
62 -63 64 0
65 -61 0
65 -64 0
61 64 -65 0
-4 -26 -66 0
4 26 -66 0
-4 26 66 0
4 -26 66 0
68 -67 0
68 8 0
67 -8 -68 0
-69 -68 0
-69 -12 0
68 12 69 0
70 67 0
70 69 0
-67 -69 -70 0
71 -66 0
71 -70 0
66 70 -71 0
72 -28 0
72 4 0
28 -4 -72 0
73 -71 0
73 -72 0
71 72 -73 0
65 -73 -74 0
-65 73 -74 0
65 73 74 0
-65 -73 74 0
75 -41 0
75 -63 0
41 63 -75 0
-76 75 0
-76 -10 0
-75 10 76 0
77 26 0
77 7 0
-26 -7 -77 0
78 7 0
78 50 0
-7 -50 -78 0
79 -77 0
79 -78 0
77 78 -79 0
76 -79 -80 0
-76 79 -80 0
76 79 80 0
-76 -79 80 0
-74 80 -81 0
74 -80 -81 0
-74 -80 81 0
74 80 81 0
-60 -81 -82 0
60 81 -82 0
-60 81 82 0
60 -81 82 0
-57 -82 -83 0
57 82 -83 0
-57 82 83 0
57 -82 83 0
-14 -7 -84 0
14 7 -84 0
-14 7 84 0
14 -7 84 0
-85 84 0
-85 -28 0
-84 28 85 0
86 12 0
86 -85 0
-12 85 -86 0
40 12 -87 0
-40 -12 -87 0
40 -12 87 0
-40 12 87 0
-23 -87 -88 0
23 87 -88 0
-23 87 88 0
23 -87 88 0
-26 42 -89 0
26 -42 -89 0
-26 -42 89 0
26 42 89 0
90 16 0
90 89 0
-16 -89 -90 0
91 88 0
91 -90 0
-88 90 -91 0
-9 50 -92 0
9 -50 -92 0
-9 -50 92 0
9 50 92 0
-3 8 -93 0
3 -8 -93 0
-3 -8 93 0
3 8 93 0
-94 66 0
-94 15 0
-66 -15 94 0
95 9 0
95 -94 0
-9 94 -95 0
93 -95 -96 0
-93 95 -96 0
93 95 96 0
-93 -95 96 0
-97 -92 0
-97 -96 0
92 96 97 0
-98 91 0
-98 -97 0
-91 97 98 0
-86 98 -99 0
86 -98 -99 0
-86 -98 99 0
86 98 99 0
-100 -45 0
-100 28 0
45 -28 100 0
101 -10 0
101 -89 0
10 89 -101 0
-100 -101 -102 0
100 101 -102 0
-100 101 102 0
100 -101 102 0
-99 -102 -103 0
99 102 -103 0
-99 102 103 0
99 -102 103 0
-83 103 -104 0
83 -103 -104 0
-83 -103 104 0
83 103 104 0
38 -104 -105 0
-38 104 -105 0
38 104 105 0
-38 -104 105 0
-106 -51 0
-106 32 0
51 -32 106 0
-17 107 -108 0
17 -107 -108 0
-17 -107 108 0
17 107 108 0
-109 -106 0
-109 -108 0
106 108 109 0
-105 109 -110 0
105 -109 -110 0
-105 -109 110 0
105 109 110 0
111 -45 0
111 -41 0
45 41 -111 0
-112 110 0
-112 -111 0
-110 111 112 0
113 -4 0
113 8 0
4 -8 -113 0
114 -17 -115 0
-114 17 -115 0
114 17 115 0
-114 -17 115 0
116 113 0
116 -115 0
-113 115 -116 0
-117 -20 0
-117 31 0
20 -31 117 0
117 9 -118 0
-117 -9 -118 0
117 -9 118 0
-117 9 118 0
119 3 0
119 16 0
-3 -16 -119 0
120 15 0
120 -119 0
-15 119 -120 0
-121 118 0
-121 120 0
-118 -120 121 0
-47 -46 -122 0
47 46 -122 0
-47 46 122 0
47 -46 122 0
-123 121 0
-123 122 0
-121 -122 123 0
124 -39 0
124 16 0
39 -16 -124 0
-123 -124 -125 0
123 124 -125 0
-123 124 125 0
123 -124 125 0
126 -116 0
126 125 0
116 -125 -126 0
112 -126 -127 0
-112 126 -127 0
112 126 127 0
-112 -126 127 0
98 -89 -38 -46 -110 -91 0
127 -1 -42 -110 -99 0
33 -45 41 39 1 0
-8 5 113 62 4 -69 0
95 107 -41 96 0
-109 96 6 108 37 0
98 38 -63 0
-56 79 83 -6 -105 0
102 30 54 28 111 0
98 -116 -35 -36 72 0
83 85 23 91 -33 -102 0
-48 53 104 -46 -51 -50 0
54 -31 0
33 -67 -123 0
31 -55 48 -29 -24 0
-52 -23 -102 -43 0
32 85 72 -45 -25 0
-118 65 0
-9 -115 0
11 28 0
-103 8 -23 52 13 -102 0
49 -119 -20 107 24 45 0
87 11 -48 0
57 40 -92 -5 33 -86 0
25 -46 -13 -78 95 29 0
99 48 -73 -12 5 0
-116 126 82 0
54 -86 -68 -74 -70 -106 0
-57 119 0
22 120 0
-88 124 90 77 0
97 46 -59 19 0
91 5 17 0
-10 3 -69 -73 -116 -62 0
9 29 -69 -53 0
-82 11 74 0
-40 69 -23 84 31 0
-12 124 75 86 0
-82 16 91 11 0
121 46 45 -66 -68 0
118 122 -127 87 60 26 0
45 52 -107 -23 51 0
25 54 50 -64 0
21 51 118 -103 -6 0
-71 88 -16 17 -81 0
121 80 -54 -10 0
7 -78 32 105 -58 0
62 40 119 -22 -86 0
93 -105 -31 0
127 -19 -108 87 0
-113 -9 -5 -50 0
83 82 62 69 0
-98 41 -124 -65 67 0
102 -11 64 0
-79 -120 -40 75 -42 -123 0
63 -45 -98 74 -125 0
127 0
